data/solutions/recovery/degenerate/intermediate/flexible/degenerate_intermediate_instance31/9.sol
Elapsed time: 100.13
Upper bound: 13452164.0
Planning weighted value: 2.00996217151e+11
C[0]=13452164.0
C[1]=13363896.0
C[2]=13357593.0
C[3]=13346911.0
C[4]=13338521.0
C[5]=13326067.0
C[6]=13302751.0
C[7]=13290331.0
C[8]=13277941.0
C[9]=13230436.0
C[10]=13036740.0
C[11]=12890401.0
C[12]=12594678.0
C[13]=12482770.0
y[0]=0
y[1]=5
y[2]=8
y[3]=3
y[4]=6
y[5]=6
y[6]=2
y[7]=7
y[8]=10
y[9]=1
y[10]=13
y[11]=10
y[12]=10
y[13]=7
y[14]=12
y[15]=5
y[16]=3
y[17]=1
y[18]=12
y[19]=8
y[20]=7
y[21]=7
y[22]=7
y[23]=1
y[24]=12
y[25]=4
y[26]=13
y[27]=11
y[28]=3
y[29]=9
y[30]=2
y[31]=3
y[32]=3
y[33]=4
y[34]=0
y[35]=5
y[36]=6
y[37]=11
y[38]=10
y[39]=11
y[40]=11
y[41]=8
y[42]=5
y[43]=4
y[44]=12
y[45]=9
y[46]=4
y[47]=0
y[48]=7
y[49]=3
y[50]=9
y[51]=3
y[52]=4
y[53]=3
y[54]=6
y[55]=2
y[56]=5
y[57]=11
y[58]=9
y[59]=4
y[60]=0
y[61]=9
y[62]=3
y[63]=0
y[64]=13
y[65]=13
y[66]=3
y[67]=9
y[68]=11
y[69]=3
y[70]=9
y[71]=11
y[72]=13
y[73]=4
y[74]=12
y[75]=7
y[76]=3
y[77]=9
y[78]=1
y[79]=8
