data/solutions/recovery/degenerate/intermediate/flexible/degenerate_intermediate_instance31/9.log

Log started (V12.6.3.0) Sat Apr 21 20:27:17 2018

New value for default parallel thread count: 1

Problem '/tmp/tmpqnTq4O.pyomo.lp' read.
Read time = 0.02 sec. (1.11 ticks)

Problem name         : /tmp/tmpqnTq4O.pyomo.lp
Objective sense      : Minimize
Variables            :    1136  [Nneg: 1,  Binary: 1120,  General Integer: 15]
Objective nonzeros   :       1
Linear constraints   :     189  [Less: 94,  Equal: 95]
  Nonzeros           :   80213
  RHS nonzeros       :     161

Variables            : Min LB: 0.000000         Max UB: 1.000000       
Objective nonzeros   : Min   : 1.000000         Max   : 1.000000       
Linear constraints   :
  Nonzeros           : Min   : 1.000000         Max   : 8036379.       
  RHS nonzeros       : Min   : 1.000000         Max   : 8.000000       
Tried aggregator 2 times.
MIP Presolve eliminated 80 rows and 66 columns.
Aggregator did 5 substitutions.
Reduced MIP has 104 rows, 1065 columns, and 3052 nonzeros.
Reduced MIP has 1050 binaries, 15 generals, 0 SOSs, and 0 indicators.
Presolve time = 0.01 sec. (14.42 ticks)
Found incumbent of value 5.6973046e+07 after 0.01 sec. (16.47 ticks)
Probing time = 0.00 sec. (2.01 ticks)
Cover probing fixed 0 vars, tightened 28 bounds.
Tried aggregator 2 times.
Aggregator did 14 substitutions.
Reduced MIP has 90 rows, 1051 columns, and 3024 nonzeros.
Reduced MIP has 1050 binaries, 1 generals, 0 SOSs, and 0 indicators.
Presolve time = 0.00 sec. (2.62 ticks)
Probing time = 0.00 sec. (1.94 ticks)
Cover probing fixed 0 vars, tightened 4 bounds.
Clique table members: 75.
MIP emphasis: balance optimality and feasibility.
MIP search method: dynamic search.
Parallel mode: none, using 1 thread.
Root relaxation solution time = 0.00 sec. (1.03 ticks)

        Nodes                                         Cuts/
   Node  Left     Objective  IInf  Best Integer    Best Bound    ItCnt     Gap

*     0+    0                       5.69730e+07        0.0000           100.00%
      0     0   1.31637e+07    19   5.69730e+07   1.31637e+07       32   76.89%
*     0+    0                       1.73582e+07   1.31637e+07            24.16%
      0     0   1.31637e+07    27   1.73582e+07     Fract: 12       53   24.16%
*     0+    0                       1.57862e+07   1.31637e+07            16.61%
      0     0   1.31637e+07    28   1.57862e+07       Cuts: 4       80   16.61%
*     0+    0                       1.54267e+07   1.31637e+07            14.67%
*     0+    0                       1.49129e+07   1.31637e+07            11.73%
*     0+    0                       1.47263e+07   1.31637e+07            10.61%
      0     2   1.31637e+07    22   1.47263e+07   1.31637e+07       80   10.61%
Elapsed time = 0.06 sec. (80.26 ticks, tree = 0.01 MB, solutions = 5)
*    30+   30                       1.43127e+07   1.31637e+07             8.03%
*    30+   30                       1.42378e+07   1.31637e+07             7.54%
*   110+   96                       1.42375e+07   1.31637e+07             7.54%
*   785   607      integral     0   1.42341e+07   1.31637e+07     4124    7.52%
    821   627   1.33488e+07    22   1.42341e+07   1.31637e+07     4404    7.52%
    822   628   1.33488e+07    22   1.42341e+07   1.31637e+07     4407    7.52%
    823   629   1.33488e+07    22   1.42341e+07   1.31637e+07     4409    7.52%
    824   630   1.33488e+07    22   1.42341e+07   1.31637e+07     4410    7.52%
    825   631   1.33488e+07    19   1.42341e+07   1.31637e+07     4415    7.52%
    826   632   1.33488e+07    19   1.42341e+07   1.31637e+07     4419    7.52%
    827   633   1.33488e+07    19   1.42341e+07   1.31637e+07     4422    7.52%
    828   634   1.33488e+07    20   1.42341e+07   1.31637e+07     4426    7.52%
    829   635   1.33488e+07    18   1.42341e+07   1.31637e+07     4428    7.52%
*   905   639      integral     0   1.42211e+07   1.31637e+07     5043    7.44%
*  1017+  659                       1.41017e+07   1.31637e+07             6.65%
*  1018+  440                       1.40270e+07   1.31637e+07             6.15%
*  1018+  293                       1.39268e+07   1.31637e+07             5.48%
*  1018+  194                       1.38615e+07   1.31637e+07             5.03%
*  1118+  162                       1.38328e+07   1.31637e+07             4.84%
*  1118+  130                       1.37737e+07   1.31637e+07             4.43%
   1165   139   1.32170e+07    22   1.37737e+07   1.31637e+07     7997    4.43%
Elapsed time = 0.70 sec. (1034.43 ticks, tree = 0.26 MB, solutions = 16)
*  1218+  119                       1.37517e+07   1.31637e+07             4.28%
*  1218+  115                       1.37459e+07   1.31637e+07             4.24%
*  1218+  110                       1.37233e+07   1.31637e+07             4.08%
*  1318+  197                       1.37225e+07   1.31637e+07             4.07%
*  1418+  266                       1.37183e+07   1.31637e+07             4.04%
   1418   267   1.32265e+07    21   1.37183e+07   1.31637e+07     9645    4.04%
   1419   268   1.32265e+07    21   1.37183e+07   1.31637e+07     9645    4.04%
   1420   269   1.32272e+07    22   1.37183e+07   1.31637e+07     9647    4.04%
   1421   269   1.32334e+07    23   1.37183e+07   1.31637e+07     9649    4.04%
   1422   270   1.32481e+07    22   1.37183e+07   1.31637e+07     9651    4.04%
   1423   271   1.32481e+07    22   1.37183e+07   1.31637e+07     9652    4.04%
   1424   272   1.32481e+07    22   1.37183e+07   1.31637e+07     9653    4.04%
   1425   272   1.33597e+07    21   1.37183e+07   1.31637e+07     9657    4.04%
   1426   272   1.33597e+07    16   1.37183e+07   1.31637e+07     9659    4.04%
   1427   272   1.33597e+07    18   1.37183e+07   1.31637e+07     9662    4.04%
Elapsed time = 1.37 sec. (1994.37 ticks, tree = 0.51 MB, solutions = 21)
   2963  1508        cutoff         1.37183e+07   1.31637e+07    18749    4.04%
   2964  1509   1.31637e+07    35   1.37183e+07   1.31637e+07    18753    4.04%
   2965  1510   1.31637e+07    36   1.37183e+07   1.31637e+07    18754    4.04%
   2966  1511   1.31637e+07    35   1.37183e+07   1.31637e+07    18758    4.04%
   2967  1512   1.31637e+07    35   1.37183e+07   1.31637e+07    18759    4.04%
   2968  1513   1.31637e+07    35   1.37183e+07   1.31637e+07    18760    4.04%
   2969  1514   1.31637e+07    35   1.37183e+07   1.31637e+07    18764    4.04%
   2970  1515   1.31637e+07    35   1.37183e+07   1.31637e+07    18765    4.04%
   2971  1516   1.31637e+07    35   1.37183e+07   1.31637e+07    18766    4.04%
   2972  1517   1.31637e+07    37   1.37183e+07   1.31637e+07    18767    4.04%
Elapsed time = 1.96 sec. (2953.08 ticks, tree = 3.22 MB, solutions = 21)
   4381  2753   1.32702e+07    31   1.37183e+07   1.31637e+07    30621    4.04%
   4382  2754   1.32891e+07    29   1.37183e+07   1.31637e+07    30631    4.04%
   4383  2755   1.32953e+07    30   1.37183e+07   1.31637e+07    30636    4.04%
   4384  2756   1.32989e+07    30   1.37183e+07   1.31637e+07    30642    4.04%
   4385  2757   1.33128e+07    29   1.37183e+07   1.31637e+07    30652    4.04%
   4386  2758   1.33128e+07    30   1.37183e+07   1.31637e+07    30657    4.04%
   4387  2758   1.33202e+07    29   1.37183e+07   1.31637e+07    30661    4.04%
   4388  2759   1.33202e+07    29   1.37183e+07   1.31637e+07    30662    4.04%
   4389  2760   1.33363e+07    30   1.37183e+07   1.31637e+07    30665    4.04%
   4390  2761   1.33366e+07    30   1.37183e+07   1.31637e+07    30666    4.04%
Elapsed time = 2.52 sec. (3910.33 ticks, tree = 6.74 MB, solutions = 21)
   5538  3672   1.31637e+07    48   1.37183e+07   1.31637e+07    46114    4.04%
   5539  3673   1.31637e+07    49   1.37183e+07   1.31637e+07    46116    4.04%
   5540  3674   1.31637e+07    49   1.37183e+07   1.31637e+07    46118    4.04%
   5541  3675   1.31637e+07    49   1.37183e+07   1.31637e+07    46119    4.04%
   5542  3676   1.31637e+07    50   1.37183e+07   1.31637e+07    46144    4.04%
   5543  3677   1.31637e+07    48   1.37183e+07   1.31637e+07    46145    4.04%
   5544  3678   1.31637e+07    46   1.37183e+07   1.31637e+07    46147    4.04%
   5545  3679   1.31699e+07    32   1.37183e+07   1.31637e+07    46201    4.04%
   5546  3680   1.31699e+07    32   1.37183e+07   1.31637e+07    46202    4.04%
   5547  3681   1.31699e+07    32   1.37183e+07   1.31637e+07    46203    4.04%
Elapsed time = 3.10 sec. (4871.21 ticks, tree = 9.86 MB, solutions = 21)
   6815  4741   1.32110e+07    55   1.37183e+07   1.31637e+07    61381    4.04%
   6816  4742   1.32111e+07    55   1.37183e+07   1.31637e+07    61382    4.04%
   6817  4743   1.32117e+07    57   1.37183e+07   1.31637e+07    61395    4.04%
   6818  4744   1.32132e+07    58   1.37183e+07   1.31637e+07    61399    4.04%
   6819  4745   1.32132e+07    58   1.37183e+07   1.31637e+07    61400    4.04%
   6820  4746   1.32424e+07    50   1.37183e+07   1.31637e+07    61459    4.04%
   6821  4747   1.32424e+07    51   1.37183e+07   1.31637e+07    61463    4.04%
   6822  4748   1.32428e+07    47   1.37183e+07   1.31637e+07    61464    4.04%
   6823  4749   1.32428e+07    46   1.37183e+07   1.31637e+07    61467    4.04%
   6824  4750   1.32428e+07    46   1.37183e+07   1.31637e+07    61469    4.04%
Elapsed time = 3.68 sec. (5841.51 ticks, tree = 14.08 MB, solutions = 21)
   7703  5484   1.31637e+07    51   1.37183e+07   1.31637e+07    74698    4.04%
   7704  5485   1.31637e+07    47   1.37183e+07   1.31637e+07    74835    4.04%
   7705  5486   1.31637e+07    44   1.37183e+07   1.31637e+07    74891    4.04%
   7706  5487   1.31637e+07    47   1.37183e+07   1.31637e+07    74926    4.04%
   7707  5488   1.31637e+07    40   1.37183e+07   1.31637e+07    74937    4.04%
   7708  5489   1.31637e+07    52   1.37183e+07   1.31637e+07    74970    4.04%
   7709  5490   1.31637e+07    53   1.37183e+07   1.31637e+07    75264    4.04%
   7710  5491   1.31682e+07    30   1.37183e+07   1.31637e+07    75436    4.04%
   7711  5492   1.31682e+07    30   1.37183e+07   1.31637e+07    75437    4.04%
   7712  5492   1.32312e+07    28   1.37183e+07   1.31637e+07    75493    4.04%
Elapsed time = 4.28 sec. (6837.70 ticks, tree = 17.29 MB, solutions = 21)
   8765  6405   1.31653e+07    63   1.37183e+07   1.31637e+07    88203    4.04%
   8766  6406   1.31653e+07    62   1.37183e+07   1.31637e+07    88204    4.04%
   8767  6407   1.31656e+07    56   1.37183e+07   1.31637e+07    88209    4.04%
   8768  6408   1.31672e+07    59   1.37183e+07   1.31637e+07    88220    4.04%
   8769  6409   1.31673e+07    57   1.37183e+07   1.31637e+07    88223    4.04%
   8770  6410   1.31673e+07    57   1.37183e+07   1.31637e+07    88225    4.04%
   8771  6411   1.31674e+07    55   1.37183e+07   1.31637e+07    88230    4.04%
   8772  6412   1.31674e+07    55   1.37183e+07   1.31637e+07    88237    4.04%
   8773  6413   1.31674e+07    54   1.37183e+07   1.31637e+07    88238    4.04%
   8774  6414   1.31793e+07    45   1.37183e+07   1.31637e+07    88273    4.04%
Elapsed time = 4.87 sec. (7809.19 ticks, tree = 21.60 MB, solutions = 21)
   9808  7328   1.32872e+07    31   1.37183e+07   1.31637e+07   102706    4.04%
   9809  7329   1.32877e+07    31   1.37183e+07   1.31637e+07   102710    4.04%
   9810  7330   1.32983e+07    29   1.37183e+07   1.31637e+07   102718    4.04%
   9811  7331   1.33001e+07    29   1.37183e+07   1.31637e+07   102719    4.04%
   9812  7332   1.33002e+07    28   1.37183e+07   1.31637e+07   102723    4.04%
   9813  7333   1.33002e+07    28   1.37183e+07   1.31637e+07   102724    4.04%
   9814  7334   1.33012e+07    29   1.37183e+07   1.31637e+07   102727    4.04%
   9815  7335   1.33012e+07    29   1.37183e+07   1.31637e+07   102730    4.04%
   9816  7336   1.33012e+07    29   1.37183e+07   1.31637e+07   102731    4.04%
   9817  7337   1.33029e+07    29   1.37183e+07   1.31637e+07   102732    4.04%
Elapsed time = 5.45 sec. (8765.65 ticks, tree = 26.09 MB, solutions = 21)
* 10318+ 7298                       1.36318e+07   1.31637e+07             3.43%
* 10318+ 6768                       1.34715e+07   1.31637e+07             2.28%
* 10318+ 6689                       1.34522e+07   1.31637e+07             2.14%
  10318  6688   1.34685e+07    24   1.34522e+07   1.31637e+07   107768    2.14%
  10319  6689   1.32031e+07    43   1.34522e+07   1.31637e+07   107993    2.14%
  10320  6690   1.32503e+07    29   1.34522e+07   1.31637e+07   108113    2.14%
  10321  6691   1.32503e+07    29   1.34522e+07   1.31637e+07   108114    2.14%
  10322  6692   1.32504e+07    31   1.34522e+07   1.31637e+07   108128    2.14%
  10323  6693   1.32504e+07    31   1.34522e+07   1.31637e+07   108133    2.14%
  10324  6694   1.32504e+07    28   1.34522e+07   1.31637e+07   108134    2.14%
  10325  6695   1.32504e+07    29   1.34522e+07   1.31637e+07   108142    2.14%
  10326  6696   1.32510e+07    30   1.34522e+07   1.31637e+07   108145    2.14%
  12444  8443   1.31637e+07    61   1.34522e+07   1.31637e+07   142069    2.14%
Elapsed time = 8.14 sec. (12588.35 ticks, tree = 33.34 MB, solutions = 24)
  15135 10854   1.31637e+07    90   1.34522e+07   1.31637e+07   191618    2.14%
  15136 10855   1.31637e+07    76   1.34522e+07   1.31637e+07   191622    2.14%
  15137 10856   1.31637e+07    71   1.34522e+07   1.31637e+07   191749    2.14%
  15138 10857   1.31637e+07    72   1.34522e+07   1.31637e+07   191854    2.14%
  15139 10858   1.31637e+07    69   1.34522e+07   1.31637e+07   191888    2.14%
  15140 10859   1.31637e+07    69   1.34522e+07   1.31637e+07   191900    2.14%
  15141 10860   1.31637e+07    72   1.34522e+07   1.31637e+07   191912    2.14%
  15142 10861   1.31637e+07    69   1.34522e+07   1.31637e+07   191949    2.14%
  15143 10862   1.31637e+07    68   1.34522e+07   1.31637e+07   192027    2.14%
  15144 10863   1.31637e+07    69   1.34522e+07   1.31637e+07   192084    2.14%
Elapsed time = 10.48 sec. (16454.93 ticks, tree = 47.56 MB, solutions = 24)
  17286 12746   1.31806e+07    63   1.34522e+07   1.31637e+07   237612    2.14%
  17287 12747   1.31807e+07    42   1.34522e+07   1.31637e+07   237617    2.14%
  17288 12748   1.31807e+07    42   1.34522e+07   1.31637e+07   237618    2.14%
  17289 12749   1.31811e+07    69   1.34522e+07   1.31637e+07   237635    2.14%
  17290 12750   1.31812e+07    37   1.34522e+07   1.31637e+07   237636    2.14%
  17291 12751   1.31812e+07    41   1.34522e+07   1.31637e+07   237639    2.14%
  17292 12752   1.31812e+07    39   1.34522e+07   1.31637e+07   237642    2.14%
  17293 12753   1.31812e+07    39   1.34522e+07   1.31637e+07   237643    2.14%
  17294 12754   1.31812e+07    36   1.34522e+07   1.31637e+07   237644    2.14%
  17295 12755   1.31812e+07    37   1.34522e+07   1.31637e+07   237649    2.14%
Elapsed time = 12.82 sec. (20275.49 ticks, tree = 60.09 MB, solutions = 24)
  18992 14230   1.31637e+07    90   1.34522e+07   1.31637e+07   284470    2.14%
  18993 14231   1.31637e+07    86   1.34522e+07   1.31637e+07   284552    2.14%
  18994 14232   1.31637e+07    92   1.34522e+07   1.31637e+07   284573    2.14%
  18995 14233   1.31637e+07    94   1.34522e+07   1.31637e+07   284688    2.14%
  18996 14234   1.31637e+07    85   1.34522e+07   1.31637e+07   284793    2.14%
  18997 14235   1.31637e+07    91   1.34522e+07   1.31637e+07   284837    2.14%
  18998 14236   1.31637e+07    68   1.34522e+07   1.31637e+07   284994    2.14%
  18999 14237   1.31637e+07    69   1.34522e+07   1.31637e+07   285007    2.14%
  19000 14238   1.31637e+07    67   1.34522e+07   1.31637e+07   285009    2.14%
  19001 14239   1.31637e+07    67   1.34522e+07   1.31637e+07   285016    2.14%
Elapsed time = 15.13 sec. (24129.77 ticks, tree = 70.52 MB, solutions = 24)
  21418 16350   1.31637e+07    64   1.34522e+07   1.31637e+07   341069    2.14%
  21419 16351   1.31637e+07    64   1.34522e+07   1.31637e+07   341070    2.14%
  21420 16352   1.31637e+07    61   1.34522e+07   1.31637e+07   341074    2.14%
  21421 16353   1.31637e+07    63   1.34522e+07   1.31637e+07   341083    2.14%
  21422 16354   1.31637e+07    65   1.34522e+07   1.31637e+07   341096    2.14%
  21423 16355   1.31637e+07    65   1.34522e+07   1.31637e+07   341097    2.14%
  21424 16356   1.31637e+07    59   1.34522e+07   1.31637e+07   341114    2.14%
  21425 16357   1.31637e+07    58   1.34522e+07   1.31637e+07   341116    2.14%
  21426 16358   1.31637e+07    60   1.34522e+07   1.31637e+07   341119    2.14%
  21427 16359   1.31637e+07    59   1.34522e+07   1.31637e+07   341121    2.14%
Elapsed time = 18.32 sec. (28371.52 ticks, tree = 85.57 MB, solutions = 24)
  24066 18704   1.32951e+07    41   1.34522e+07   1.31637e+07   396867    2.14%
  24067 18705   1.32951e+07    40   1.34522e+07   1.31637e+07   396868    2.14%
  24068 18706   1.34265e+07    29   1.34522e+07   1.31637e+07   396905    2.14%
  24069 18707   1.34265e+07    31   1.34522e+07   1.31637e+07   396936    2.14%
  24070 18708   1.34265e+07    29   1.34522e+07   1.31637e+07   396937    2.14%
  24071 18709   1.34265e+07    26   1.34522e+07   1.31637e+07   396941    2.14%
  24072 18710   1.34265e+07    23   1.34522e+07   1.31637e+07   396976    2.14%
  24073 18711   1.34265e+07    24   1.34522e+07   1.31637e+07   397003    2.14%
  24074 18711   1.34265e+07    22   1.34522e+07   1.31637e+07   397008    2.14%
  24075 18712   1.34265e+07    19   1.34522e+07   1.31637e+07   397022    2.14%
Elapsed time = 21.96 sec. (32231.29 ticks, tree = 102.67 MB, solutions = 24)
  26093 20450   1.31878e+07    61   1.34522e+07   1.31637e+07   443309    2.14%
  26094 20451   1.31878e+07    58   1.34522e+07   1.31637e+07   443313    2.14%
  26095 20452   1.31973e+07    54   1.34522e+07   1.31637e+07   443344    2.14%
  26096 20453   1.31973e+07    54   1.34522e+07   1.31637e+07   443346    2.14%
  26097 20454   1.31978e+07    53   1.34522e+07   1.31637e+07   443372    2.14%
  26098 20455   1.31990e+07    56   1.34522e+07   1.31637e+07   443419    2.14%
  26099 20456   1.31990e+07    56   1.34522e+07   1.31637e+07   443425    2.14%
  26100 20457   1.32624e+07    45   1.34522e+07   1.31637e+07   443511    2.14%
  26101 20458   1.32624e+07    48   1.34522e+07   1.31637e+07   443525    2.14%
  26102 20459   1.32624e+07    46   1.34522e+07   1.31637e+07   443535    2.14%
Elapsed time = 25.47 sec. (36091.36 ticks, tree = 115.08 MB, solutions = 24)
  28539 22615   1.31637e+07   103   1.34522e+07   1.31637e+07   498554    2.14%
  28540 22616   1.31637e+07    97   1.34522e+07   1.31637e+07   498571    2.14%
  28541 22617   1.31637e+07   100   1.34522e+07   1.31637e+07   498576    2.14%
  28542 22618   1.31637e+07    97   1.34522e+07   1.31637e+07   498580    2.14%
  28543 22619   1.31637e+07    99   1.34522e+07   1.31637e+07   498588    2.14%
  28544 22620   1.31637e+07   103   1.34522e+07   1.31637e+07   498612    2.14%
  28545 22621   1.31637e+07    98   1.34522e+07   1.31637e+07   498620    2.14%
  28546 22622   1.31637e+07    99   1.34522e+07   1.31637e+07   498623    2.14%
  28547 22623   1.31637e+07   106   1.34522e+07   1.31637e+07   498641    2.14%
  28548 22624   1.31637e+07   106   1.34522e+07   1.31637e+07   498643    2.14%
Elapsed time = 29.10 sec. (39926.00 ticks, tree = 130.38 MB, solutions = 24)
  31006 24833   1.32020e+07    30   1.34522e+07   1.31637e+07   550149    2.14%
  31007 24833   1.32392e+07    22   1.34522e+07   1.31637e+07   550155    2.14%
  31008 24834   1.32495e+07    37   1.34522e+07   1.31637e+07   550171    2.14%
  31009 24835   1.32495e+07    36   1.34522e+07   1.31637e+07   550172    2.14%
  31010 24835   1.32495e+07    33   1.34522e+07   1.31637e+07   550179    2.14%
  31011 24834        cutoff         1.34522e+07   1.31637e+07   550181    2.14%
  31012 24835   1.32136e+07    34   1.34522e+07   1.31637e+07   550326    2.14%
  31013 24836   1.32171e+07    31   1.34522e+07   1.31637e+07   550335    2.14%
  31014 24837   1.32171e+07    33   1.34522e+07   1.31637e+07   550341    2.14%
  31015 24838   1.32171e+07    33   1.34522e+07   1.31637e+07   550342    2.14%
Elapsed time = 32.57 sec. (43753.83 ticks, tree = 145.94 MB, solutions = 24)
  33585 27050   1.31637e+07    54   1.34522e+07   1.31637e+07   603372    2.14%
  33586 27051   1.31637e+07    63   1.34522e+07   1.31637e+07   603441    2.14%
  33587 27052   1.31637e+07    63   1.34522e+07   1.31637e+07   603443    2.14%
  33588 27053   1.31637e+07    59   1.34522e+07   1.31637e+07   603487    2.14%
  33589 27054   1.31637e+07    59   1.34522e+07   1.31637e+07   603491    2.14%
  33590 27055   1.31637e+07    56   1.34522e+07   1.31637e+07   603496    2.14%
  33591 27056   1.31637e+07    66   1.34522e+07   1.31637e+07   603500    2.14%
  33592 27057   1.31637e+07    62   1.34522e+07   1.31637e+07   603501    2.14%
  33593 27058   1.31637e+07    58   1.34522e+07   1.31637e+07   603504    2.14%
  33594 27059   1.31637e+07    62   1.34522e+07   1.31637e+07   603513    2.14%
Elapsed time = 36.06 sec. (47583.17 ticks, tree = 161.54 MB, solutions = 24)
  36412 29528   1.31637e+07    56   1.34522e+07   1.31637e+07   657711    2.14%
  36413 29529   1.31637e+07    59   1.34522e+07   1.31637e+07   657731    2.14%
  36414 29530   1.31637e+07    55   1.34522e+07   1.31637e+07   657772    2.14%
  36415 29531   1.31637e+07    52   1.34522e+07   1.31637e+07   657774    2.14%
  36416 29532   1.31637e+07    54   1.34522e+07   1.31637e+07   657787    2.14%
  36417 29533   1.31637e+07    53   1.34522e+07   1.31637e+07   657789    2.14%
  36418 29534   1.31637e+07    53   1.34522e+07   1.31637e+07   657790    2.14%
  36419 29535   1.31637e+07    53   1.34522e+07   1.31637e+07   657808    2.14%
  36420 29536   1.31637e+07    51   1.34522e+07   1.31637e+07   657810    2.14%
  36421 29537   1.31637e+07    55   1.34522e+07   1.31637e+07   657815    2.14%
Elapsed time = 39.56 sec. (51411.91 ticks, tree = 178.95 MB, solutions = 24)
  38887 31680   1.31637e+07    39   1.34522e+07   1.31637e+07   707308    2.14%
  38888 31681   1.31637e+07    43   1.34522e+07   1.31637e+07   707337    2.14%
  38889 31682   1.31637e+07    41   1.34522e+07   1.31637e+07   707354    2.14%
  38890 31683   1.31637e+07    41   1.34522e+07   1.31637e+07   707364    2.14%
  38891 31684   1.31637e+07    42   1.34522e+07   1.31637e+07   707401    2.14%
  38892 31685   1.31637e+07    41   1.34522e+07   1.31637e+07   707403    2.14%
  38893 31686   1.31637e+07    41   1.34522e+07   1.31637e+07   707404    2.14%
  38894 31687   1.31637e+07    43   1.34522e+07   1.31637e+07   707406    2.14%
  38895 31688   1.31637e+07    40   1.34522e+07   1.31637e+07   707410    2.14%
  38896 31689   1.31637e+07    43   1.34522e+07   1.31637e+07   707416    2.14%
Elapsed time = 43.04 sec. (55236.90 ticks, tree = 194.08 MB, solutions = 24)
  41518 34046   1.33147e+07    22   1.34522e+07   1.31637e+07   760789    2.14%
  41519 34047   1.33147e+07    21   1.34522e+07   1.31637e+07   760790    2.14%
  41520 34048   1.33147e+07    20   1.34522e+07   1.31637e+07   760791    2.14%
  41521 34048   1.33147e+07    21   1.34522e+07   1.31637e+07   760799    2.14%
  41522 34049   1.33147e+07    20   1.34522e+07   1.31637e+07   760806    2.14%
  41523 34049   1.33147e+07    21   1.34522e+07   1.31637e+07   760808    2.14%
  41524 34050   1.33147e+07    20   1.34522e+07   1.31637e+07   760810    2.14%
  41525 34050   1.33147e+07    20   1.34522e+07   1.31637e+07   760811    2.14%
  41526 34049        cutoff         1.34522e+07   1.31637e+07   760814    2.14%
  41527 34050   1.31637e+07    51   1.34522e+07   1.31637e+07   760937    2.14%
Elapsed time = 46.71 sec. (59312.69 ticks, tree = 211.65 MB, solutions = 24)
  44062 36231   1.31922e+07    42   1.34522e+07   1.31637e+07   819165    2.14%
  44063 36232   1.31637e+07    45   1.34522e+07   1.31637e+07   819246    2.14%
  44064 36233   1.31637e+07    53   1.34522e+07   1.31637e+07   819337    2.14%
  44065 36234   1.31637e+07    42   1.34522e+07   1.31637e+07   819573    2.14%
  44066 36235   1.31637e+07    43   1.34522e+07   1.31637e+07   819600    2.14%
  44067 36236   1.31637e+07    42   1.34522e+07   1.31637e+07   819601    2.14%
  44068 36237   1.31637e+07    41   1.34522e+07   1.31637e+07   819625    2.14%
  44069 36236        cutoff         1.34522e+07   1.31637e+07   819697    2.14%
  44070 36237   1.31637e+07    41   1.34522e+07   1.31637e+07   819698    2.14%
  44071 36236        cutoff         1.34522e+07   1.31637e+07   819755    2.14%
Elapsed time = 50.33 sec. (63173.07 ticks, tree = 227.00 MB, solutions = 24)
  46582 38437   1.31637e+07    61   1.34522e+07   1.31637e+07   872180    2.14%
  46583 38438   1.31637e+07    62   1.34522e+07   1.31637e+07   872209    2.14%
  46584 38439   1.31637e+07    59   1.34522e+07   1.31637e+07   872228    2.14%
  46585 38440   1.31637e+07    59   1.34522e+07   1.31637e+07   872274    2.14%
  46586 38441   1.31637e+07    63   1.34522e+07   1.31637e+07   872353    2.14%
  46587 38442   1.31637e+07    48   1.34522e+07   1.31637e+07   872361    2.14%
  46588 38443   1.31637e+07    48   1.34522e+07   1.31637e+07   872363    2.14%
  46589 38444   1.31637e+07    48   1.34522e+07   1.31637e+07   872373    2.14%
  46590 38445   1.31637e+07    49   1.34522e+07   1.31637e+07   872375    2.14%
  46591 38446   1.31637e+07    56   1.34522e+07   1.31637e+07   872433    2.14%
Elapsed time = 53.81 sec. (67005.01 ticks, tree = 242.53 MB, solutions = 24)
  49118 40602   1.34022e+07    18   1.34522e+07   1.31637e+07   925235    2.14%
  49119 40603   1.34022e+07    27   1.34522e+07   1.31637e+07   925251    2.14%
  49120 40604   1.34022e+07    24   1.34522e+07   1.31637e+07   925253    2.14%
  49121 40604   1.34022e+07    21   1.34522e+07   1.31637e+07   925290    2.14%
  49122 40605   1.34022e+07    21   1.34522e+07   1.31637e+07   925291    2.14%
  49123 40606   1.34022e+07    24   1.34522e+07   1.31637e+07   925295    2.14%
  49124 40607   1.34022e+07    24   1.34522e+07   1.31637e+07   925297    2.14%
  49125 40608   1.34022e+07    33   1.34522e+07   1.31637e+07   925316    2.14%
  49126 40607   1.34429e+07    11   1.34522e+07   1.31637e+07   925323    2.14%
  49127 40608   1.34022e+07    24   1.34522e+07   1.31637e+07   925331    2.14%
Elapsed time = 57.30 sec. (70860.00 ticks, tree = 257.67 MB, solutions = 24)
  52500 43617   1.31637e+07    47   1.34522e+07   1.31637e+07   980422    2.14%
  52501 43618   1.31637e+07    48   1.34522e+07   1.31637e+07   980427    2.14%
  52502 43619   1.31637e+07    60   1.34522e+07   1.31637e+07   980459    2.14%
  52503 43620   1.31637e+07    57   1.34522e+07   1.31637e+07   980461    2.14%
  52504 43621   1.31637e+07    59   1.34522e+07   1.31637e+07   980470    2.14%
  52505 43622   1.31637e+07    42   1.34522e+07   1.31637e+07   980487    2.14%
  52506 43623   1.31637e+07    41   1.34522e+07   1.31637e+07   980491    2.14%
  52507 43624   1.31637e+07    41   1.34522e+07   1.31637e+07   980503    2.14%
  52508 43625   1.31637e+07    41   1.34522e+07   1.31637e+07   980509    2.14%
  52509 43626   1.31637e+07    40   1.34522e+07   1.31637e+07   980524    2.14%
Elapsed time = 60.80 sec. (74682.63 ticks, tree = 278.87 MB, solutions = 24)
  55741 46446   1.31637e+07    60   1.34522e+07   1.31637e+07  1034476    2.14%
  55742 46447   1.31751e+07    51   1.34522e+07   1.31637e+07  1034607    2.14%
  55743 46448   1.31779e+07    49   1.34522e+07   1.31637e+07  1034608    2.14%
  55744 46449   1.31806e+07    62   1.34522e+07   1.31637e+07  1034630    2.14%
  55745 46450   1.33753e+07    35   1.34522e+07   1.31637e+07  1034724    2.14%
  55746 46451   1.33853e+07    32   1.34522e+07   1.31637e+07  1034731    2.14%
  55747 46452   1.34243e+07    29   1.34522e+07   1.31637e+07  1034733    2.14%
  55748 46453   1.34243e+07    30   1.34522e+07   1.31637e+07  1034735    2.14%
  55749 46452        cutoff         1.34522e+07   1.31637e+07  1034739    2.14%
  55750 46451        cutoff         1.34522e+07   1.31637e+07  1034740    2.14%
Elapsed time = 64.30 sec. (78514.25 ticks, tree = 298.73 MB, solutions = 24)
  58286 48634   1.32696e+07    52   1.34522e+07   1.31637e+07  1085044    2.14%
  58287 48635   1.31637e+07    45   1.34522e+07   1.31637e+07  1085048    2.14%
  58288 48636   1.31637e+07    44   1.34522e+07   1.31637e+07  1085050    2.14%
  58289 48636   1.32990e+07    38   1.34522e+07   1.31637e+07  1085285    2.14%
  58290 48637   1.32990e+07    40   1.34522e+07   1.31637e+07  1085305    2.14%
  58291 48638   1.32990e+07    38   1.34522e+07   1.31637e+07  1085308    2.14%
  58292 48639   1.32990e+07    37   1.34522e+07   1.31637e+07  1085309    2.14%
  58293 48640   1.32990e+07    36   1.34522e+07   1.31637e+07  1085310    2.14%
  58294 48641   1.32999e+07    36   1.34522e+07   1.31637e+07  1085321    2.14%
  58295 48642   1.33013e+07    31   1.34522e+07   1.31637e+07  1085324    2.14%
Elapsed time = 67.76 sec. (82352.63 ticks, tree = 314.12 MB, solutions = 24)
  62238 51983   1.32291e+07    39   1.34522e+07   1.31637e+07  1138489    2.14%
  62239 51983   1.32291e+07    39   1.34522e+07   1.31637e+07  1138490    2.14%
  62240 51984   1.32316e+07    39   1.34522e+07   1.31637e+07  1138493    2.14%
  62241 51985   1.32336e+07    38   1.34522e+07   1.31637e+07  1138496    2.14%
  62242 51986   1.32378e+07    37   1.34522e+07   1.31637e+07  1138500    2.14%
  62243 51986   1.32378e+07    37   1.34522e+07   1.31637e+07  1138505    2.14%
  62244 51987   1.32379e+07    37   1.34522e+07   1.31637e+07  1138507    2.14%
  62245 51987   1.32379e+07    37   1.34522e+07   1.31637e+07  1138510    2.14%
  62246 51988   1.32379e+07    37   1.34522e+07   1.31637e+07  1138512    2.14%
  62247 51988   1.32379e+07    37   1.34522e+07   1.31637e+07  1138514    2.14%
Elapsed time = 71.20 sec. (86170.76 ticks, tree = 337.68 MB, solutions = 24)
  65188 54528   1.32828e+07    41   1.34522e+07   1.31637e+07  1186363    2.14%
  65189 54529   1.32828e+07    41   1.34522e+07   1.31637e+07  1186364    2.14%
  65190 54528        cutoff         1.34522e+07   1.31637e+07  1186382    2.14%
  65191 54527   1.33609e+07    21   1.34522e+07   1.31637e+07  1186399    2.14%
  65192 54528   1.31637e+07    42   1.34522e+07   1.31637e+07  1186427    2.14%
  65193 54529   1.31637e+07    44   1.34522e+07   1.31637e+07  1186441    2.14%
  65194 54530   1.31637e+07    41   1.34522e+07   1.31637e+07  1186446    2.14%
  65195 54531   1.31637e+07    43   1.34522e+07   1.31637e+07  1186453    2.14%
  65196 54532   1.31637e+07    40   1.34522e+07   1.31637e+07  1186460    2.14%
  65197 54533   1.31637e+07    39   1.34522e+07   1.31637e+07  1186461    2.14%
Elapsed time = 74.72 sec. (89992.00 ticks, tree = 355.55 MB, solutions = 24)
  67630 56590   1.31637e+07    55   1.34522e+07   1.31637e+07  1239731    2.14%
  67631 56591   1.31637e+07    56   1.34522e+07   1.31637e+07  1239829    2.14%
  67632 56592   1.31637e+07    59   1.34522e+07   1.31637e+07  1239924    2.14%
  67633 56593   1.31637e+07    52   1.34522e+07   1.31637e+07  1240029    2.14%
  67634 56594   1.31637e+07    48   1.34522e+07   1.31637e+07  1240058    2.14%
  67635 56595   1.31637e+07    52   1.34522e+07   1.31637e+07  1240273    2.14%
  67636 56596   1.31637e+07    45   1.34522e+07   1.31637e+07  1240277    2.14%
  67637 56597   1.31637e+07    53   1.34522e+07   1.31637e+07  1240390    2.14%
  67638 56598   1.31637e+07    65   1.34522e+07   1.31637e+07  1240532    2.14%
  67639 56599   1.31637e+07    64   1.34522e+07   1.31637e+07  1240533    2.14%
Elapsed time = 78.32 sec. (93855.64 ticks, tree = 370.06 MB, solutions = 24)
  70252 58859   1.32181e+07    56   1.34522e+07   1.31637e+07  1295269    2.14%
  70253 58860   1.32310e+07    53   1.34522e+07   1.31637e+07  1295302    2.14%
  70254 58861   1.32324e+07    53   1.34522e+07   1.31637e+07  1295309    2.14%
  70255 58862   1.32324e+07    53   1.34522e+07   1.31637e+07  1295310    2.14%
  70256 58863   1.32324e+07    53   1.34522e+07   1.31637e+07  1295311    2.14%
  70257 58864   1.32324e+07    53   1.34522e+07   1.31637e+07  1295315    2.14%
  70258 58865   1.32485e+07    51   1.34522e+07   1.31637e+07  1295341    2.14%
  70259 58866   1.32521e+07    49   1.34522e+07   1.31637e+07  1295364    2.14%
  70260 58867   1.32522e+07    49   1.34522e+07   1.31637e+07  1295365    2.14%
  70261 58868   1.32522e+07    49   1.34522e+07   1.31637e+07  1295368    2.14%
Elapsed time = 81.84 sec. (97683.69 ticks, tree = 385.98 MB, solutions = 24)
  73123 61360   1.33248e+07    27   1.34522e+07   1.31637e+07  1345341    2.14%
  73124 61361   1.33335e+07    26   1.34522e+07   1.31637e+07  1345342    2.14%
  73125 61362   1.33395e+07    24   1.34522e+07   1.31637e+07  1345343    2.14%
  73126 61362   1.33395e+07    23   1.34522e+07   1.31637e+07  1345344    2.14%
  73127 61363   1.33395e+07    21   1.34522e+07   1.31637e+07  1345350    2.14%
  73128 61364   1.33398e+07    22   1.34522e+07   1.31637e+07  1345367    2.14%
  73129 61364   1.34340e+07    21   1.34522e+07   1.31637e+07  1345385    2.14%
  73130 61363        cutoff         1.34522e+07   1.31637e+07  1345399    2.14%
  73131 61364   1.31637e+07    50   1.34522e+07   1.31637e+07  1345535    2.14%
  73132 61365   1.31637e+07    40   1.34522e+07   1.31637e+07  1345601    2.14%
Elapsed time = 85.31 sec. (101515.97 ticks, tree = 403.48 MB, solutions = 24)
  75936 63679   1.32213e+07    57   1.34522e+07   1.31637e+07  1397094    2.14%
  75937 63680   1.32248e+07    58   1.34522e+07   1.31637e+07  1397097    2.14%
  75938 63681   1.32248e+07    58   1.34522e+07   1.31637e+07  1397139    2.14%
  75939 63682   1.32248e+07    55   1.34522e+07   1.31637e+07  1397144    2.14%
  75940 63683   1.32587e+07    46   1.34522e+07   1.31637e+07  1397155    2.14%
  75941 63684   1.32587e+07    40   1.34522e+07   1.31637e+07  1397156    2.14%
  75942 63685   1.32587e+07    45   1.34522e+07   1.31637e+07  1397170    2.14%
  75943 63686   1.32587e+07    42   1.34522e+07   1.31637e+07  1397171    2.14%
  75944 63687   1.32587e+07    38   1.34522e+07   1.31637e+07  1397208    2.14%
  75945 63688   1.34368e+07    27   1.34522e+07   1.31637e+07  1397277    2.14%
Elapsed time = 88.73 sec. (105343.82 ticks, tree = 419.80 MB, solutions = 24)
  78741 66199   1.32004e+07    49   1.34522e+07   1.31637e+07  1430289    2.14%
  78742 66200   1.31637e+07    35   1.34522e+07   1.31637e+07  1430291    2.14%
  78743 66201   1.31637e+07    35   1.34522e+07   1.31637e+07  1430299    2.14%
  78744 66202   1.31637e+07    36   1.34522e+07   1.31637e+07  1430304    2.14%
  78745 66203   1.31637e+07    36   1.34522e+07   1.31637e+07  1430306    2.14%
  78746 66204   1.31637e+07    34   1.34522e+07   1.31637e+07  1430327    2.14%
  78747 66205   1.31637e+07    35   1.34522e+07   1.31637e+07  1430328    2.14%
  78748 66206   1.31637e+07    35   1.34522e+07   1.31637e+07  1430330    2.14%
  78749 66207   1.31637e+07    34   1.34522e+07   1.31637e+07  1430339    2.14%
  78750 66208   1.31637e+07    35   1.34522e+07   1.31637e+07  1430351    2.14%
Elapsed time = 91.92 sec. (109170.43 ticks, tree = 439.41 MB, solutions = 24)
  80537 67819   1.34022e+07    19   1.34522e+07   1.31637e+07  1448285    2.14%
  80538 67820   1.34022e+07    18   1.34522e+07   1.31637e+07  1448291    2.14%
  80539 67821   1.34022e+07    17   1.34522e+07   1.31637e+07  1448298    2.14%
  80540 67822   1.34022e+07    18   1.34522e+07   1.31637e+07  1448299    2.14%
  80541 67823   1.34022e+07    17   1.34522e+07   1.31637e+07  1448301    2.14%
  80542 67824   1.34022e+07    18   1.34522e+07   1.31637e+07  1448302    2.14%
  80543 67823        cutoff         1.34522e+07   1.31637e+07  1448340    2.14%
  80544 67822        cutoff         1.34522e+07   1.31637e+07  1448353    2.14%
  80545 67823   1.31637e+07    55   1.34522e+07   1.31637e+07  1448553    2.14%
  80546 67824   1.31637e+07    55   1.34522e+07   1.31637e+07  1448554    2.14%
Elapsed time = 94.80 sec. (112999.30 ticks, tree = 450.77 MB, solutions = 24)
  84318 71074   1.34437e+07    12   1.34522e+07   1.31637e+07  1496330    2.14%
  84319 71075   1.34437e+07    21   1.34522e+07   1.31637e+07  1496339    2.14%
  84320 71076   1.34437e+07    13   1.34522e+07   1.31637e+07  1496340    2.14%
  84321 71076   1.34437e+07    19   1.34522e+07   1.31637e+07  1496348    2.14%
  84322 71077   1.34437e+07    12   1.34522e+07   1.31637e+07  1496350    2.14%
  84323 71078   1.34437e+07    21   1.34522e+07   1.31637e+07  1496359    2.14%
  84324 71079   1.34437e+07    14   1.34522e+07   1.31637e+07  1496360    2.14%
  84325 71080   1.34437e+07    22   1.34522e+07   1.31637e+07  1496368    2.14%
  84326 71081   1.34437e+07    21   1.34522e+07   1.31637e+07  1496369    2.14%
  84327 71080        cutoff         1.34522e+07   1.31637e+07  1496372    2.14%
Elapsed time = 98.22 sec. (116881.08 ticks, tree = 473.66 MB, solutions = 24)

Cover cuts applied:  430
Mixed integer rounding cuts applied:  15
Zero-half cuts applied:  3
Gomory fractional cuts applied:  7

Root node processing (before b&c):
  Real time             =    0.06 sec. (80.36 ticks)
Sequential b&c:
  Real time             =   99.94 sec. (118675.59 ticks)
                          ------------
Total (root+branch&cut) =  100.00 sec. (118755.95 ticks)

Solution pool: 24 solutions saved.

MIP - Time limit exceeded, integer feasible:  Objective =  1.3452164000e+07
Current MIP best bound =  1.3163658000e+07 (gap = 288506, 2.14%)
Solution time =  100.00 sec.  Iterations = 1522780  Nodes = 85428 (71964)
Deterministic time = 118755.95 ticks  (1187.56 ticks/sec)


Incumbent solution written to file '/tmp/tmpnClfJQ.cplex.sol'.
